g3 0 1 0	# problem vardim
 100 0 1 0 0	# vars, constraints, objectives, ranges, eqns
 0 1	# nonlinear constraints, objectives
 0 0	# network constraints: nonlinear, linear
 0 100 0	# nonlinear vars in constraints, objectives, both
 0 0 0 1	# linear network variables; functions; arith, flags
 0 0 0 0 0	# discrete variables: binary, integer, nonlinear (b,c,o)
 0 100	# nonzeros in Jacobian, gradients
 0 0	# max name lengths: constraints, variables
 0 0 0 0 0	# common exprs: b,c,o,c1,o1
b
3
3
3
3
3
3
3
3
3
3
3
3
3
3
3
3
3
3
3
3
3
3
3
3
3
3
3
3
3
3
3
3
3
3
3
3
3
3
3
3
3
3
3
3
3
3
3
3
3
3
3
3
3
3
3
3
3
3
3
3
3
3
3
3
3
3
3
3
3
3
3
3
3
3
3
3
3
3
3
3
3
3
3
3
3
3
3
3
3
3
3
3
3
3
3
3
3
3
3
3
x100
0 0.99
1 0.98
2 0.97
3 0.96
4 0.95
5 0.94
6 0.9299999999999999
7 0.92
8 0.91
9 0.9
10 0.89
11 0.88
12 0.87
13 0.86
14 0.85
15 0.84
16 0.83
17 0.8200000000000001
18 0.81
19 0.8
20 0.79
21 0.78
22 0.77
23 0.76
24 0.75
25 0.74
26 0.73
27 0.72
28 0.71
29 0.7
30 0.69
31 0.6799999999999999
32 0.6699999999999999
33 0.6599999999999999
34 0.65
35 0.64
36 0.63
37 0.62
38 0.61
39 0.6
40 0.5900000000000001
41 0.5800000000000001
42 0.5700000000000001
43 0.56
44 0.55
45 0.54
46 0.53
47 0.52
48 0.51
49 0.5
50 0.49
51 0.48
52 0.47
53 0.45999999999999996
54 0.44999999999999996
55 0.43999999999999995
56 0.43000000000000005
57 0.42000000000000004
58 0.41000000000000003
59 0.4
60 0.39
61 0.38
62 0.37
63 0.36
64 0.35
65 0.33999999999999997
66 0.32999999999999996
67 0.31999999999999995
68 0.31000000000000005
69 0.30000000000000004
70 0.29000000000000004
71 0.28
72 0.27
73 0.26
74 0.25
75 0.24
76 0.22999999999999998
77 0.21999999999999997
78 0.20999999999999996
79 0.19999999999999996
80 0.18999999999999995
81 0.18000000000000005
82 0.17000000000000004
83 0.16000000000000003
84 0.15000000000000002
85 0.14
86 0.13
87 0.12
88 0.10999999999999999
89 0.09999999999999998
90 0.08999999999999997
91 0.07999999999999996
92 0.06999999999999995
93 0.06000000000000005
94 0.050000000000000044
95 0.040000000000000036
96 0.030000000000000027
97 0.020000000000000018
98 0.010000000000000009
99 0
O0 0
o54
102
o5
o0
n-1
v0
n2
o5
o0
n-1
v1
n2
o5
o0
n-1
v2
n2
o5
o0
n-1
v3
n2
o5
o0
n-1
v4
n2
o5
o0
n-1
v5
n2
o5
o0
n-1
v6
n2
o5
o0
n-1
v7
n2
o5
o0
n-1
v8
n2
o5
o0
n-1
v9
n2
o5
o0
n-1
v10
n2
o5
o0
n-1
v11
n2
o5
o0
n-1
v12
n2
o5
o0
n-1
v13
n2
o5
o0
n-1
v14
n2
o5
o0
n-1
v15
n2
o5
o0
n-1
v16
n2
o5
o0
n-1
v17
n2
o5
o0
n-1
v18
n2
o5
o0
n-1
v19
n2
o5
o0
n-1
v20
n2
o5
o0
n-1
v21
n2
o5
o0
n-1
v22
n2
o5
o0
n-1
v23
n2
o5
o0
n-1
v24
n2
o5
o0
n-1
v25
n2
o5
o0
n-1
v26
n2
o5
o0
n-1
v27
n2
o5
o0
n-1
v28
n2
o5
o0
n-1
v29
n2
o5
o0
n-1
v30
n2
o5
o0
n-1
v31
n2
o5
o0
n-1
v32
n2
o5
o0
n-1
v33
n2
o5
o0
n-1
v34
n2
o5
o0
n-1
v35
n2
o5
o0
n-1
v36
n2
o5
o0
n-1
v37
n2
o5
o0
n-1
v38
n2
o5
o0
n-1
v39
n2
o5
o0
n-1
v40
n2
o5
o0
n-1
v41
n2
o5
o0
n-1
v42
n2
o5
o0
n-1
v43
n2
o5
o0
n-1
v44
n2
o5
o0
n-1
v45
n2
o5
o0
n-1
v46
n2
o5
o0
n-1
v47
n2
o5
o0
n-1
v48
n2
o5
o0
n-1
v49
n2
o5
o0
n-1
v50
n2
o5
o0
n-1
v51
n2
o5
o0
n-1
v52
n2
o5
o0
n-1
v53
n2
o5
o0
n-1
v54
n2
o5
o0
n-1
v55
n2
o5
o0
n-1
v56
n2
o5
o0
n-1
v57
n2
o5
o0
n-1
v58
n2
o5
o0
n-1
v59
n2
o5
o0
n-1
v60
n2
o5
o0
n-1
v61
n2
o5
o0
n-1
v62
n2
o5
o0
n-1
v63
n2
o5
o0
n-1
v64
n2
o5
o0
n-1
v65
n2
o5
o0
n-1
v66
n2
o5
o0
n-1
v67
n2
o5
o0
n-1
v68
n2
o5
o0
n-1
v69
n2
o5
o0
n-1
v70
n2
o5
o0
n-1
v71
n2
o5
o0
n-1
v72
n2
o5
o0
n-1
v73
n2
o5
o0
n-1
v74
n2
o5
o0
n-1
v75
n2
o5
o0
n-1
v76
n2
o5
o0
n-1
v77
n2
o5
o0
n-1
v78
n2
o5
o0
n-1
v79
n2
o5
o0
n-1
v80
n2
o5
o0
n-1
v81
n2
o5
o0
n-1
v82
n2
o5
o0
n-1
v83
n2
o5
o0
n-1
v84
n2
o5
o0
n-1
v85
n2
o5
o0
n-1
v86
n2
o5
o0
n-1
v87
n2
o5
o0
n-1
v88
n2
o5
o0
n-1
v89
n2
o5
o0
n-1
v90
n2
o5
o0
n-1
v91
n2
o5
o0
n-1
v92
n2
o5
o0
n-1
v93
n2
o5
o0
n-1
v94
n2
o5
o0
n-1
v95
n2
o5
o0
n-1
v96
n2
o5
o0
n-1
v97
n2
o5
o0
n-1
v98
n2
o5
o0
n-1
v99
n2
o5
o0
n-5050
o54
100
v0
o2
n2
v1
o2
n3
v2
o2
n4
v3
o2
n5
v4
o2
n6
v5
o2
n7
v6
o2
n8
v7
o2
n9
v8
o2
n10
v9
o2
n11
v10
o2
n12
v11
o2
n13
v12
o2
n14
v13
o2
n15
v14
o2
n16
v15
o2
n17
v16
o2
n18
v17
o2
n19
v18
o2
n20
v19
o2
n21
v20
o2
n22
v21
o2
n23
v22
o2
n24
v23
o2
n25
v24
o2
n26
v25
o2
n27
v26
o2
n28
v27
o2
n29
v28
o2
n30
v29
o2
n31
v30
o2
n32
v31
o2
n33
v32
o2
n34
v33
o2
n35
v34
o2
n36
v35
o2
n37
v36
o2
n38
v37
o2
n39
v38
o2
n40
v39
o2
n41
v40
o2
n42
v41
o2
n43
v42
o2
n44
v43
o2
n45
v44
o2
n46
v45
o2
n47
v46
o2
n48
v47
o2
n49
v48
o2
n50
v49
o2
n51
v50
o2
n52
v51
o2
n53
v52
o2
n54
v53
o2
n55
v54
o2
n56
v55
o2
n57
v56
o2
n58
v57
o2
n59
v58
o2
n60
v59
o2
n61
v60
o2
n62
v61
o2
n63
v62
o2
n64
v63
o2
n65
v64
o2
n66
v65
o2
n67
v66
o2
n68
v67
o2
n69
v68
o2
n70
v69
o2
n71
v70
o2
n72
v71
o2
n73
v72
o2
n74
v73
o2
n75
v74
o2
n76
v75
o2
n77
v76
o2
n78
v77
o2
n79
v78
o2
n80
v79
o2
n81
v80
o2
n82
v81
o2
n83
v82
o2
n84
v83
o2
n85
v84
o2
n86
v85
o2
n87
v86
o2
n88
v87
o2
n89
v88
o2
n90
v89
o2
n91
v90
o2
n92
v91
o2
n93
v92
o2
n94
v93
o2
n95
v94
o2
n96
v95
o2
n97
v96
o2
n98
v97
o2
n99
v98
o2
n100
v99
n2
o5
o0
n-5050
o54
100
v0
o2
n2
v1
o2
n3
v2
o2
n4
v3
o2
n5
v4
o2
n6
v5
o2
n7
v6
o2
n8
v7
o2
n9
v8
o2
n10
v9
o2
n11
v10
o2
n12
v11
o2
n13
v12
o2
n14
v13
o2
n15
v14
o2
n16
v15
o2
n17
v16
o2
n18
v17
o2
n19
v18
o2
n20
v19
o2
n21
v20
o2
n22
v21
o2
n23
v22
o2
n24
v23
o2
n25
v24
o2
n26
v25
o2
n27
v26
o2
n28
v27
o2
n29
v28
o2
n30
v29
o2
n31
v30
o2
n32
v31
o2
n33
v32
o2
n34
v33
o2
n35
v34
o2
n36
v35
o2
n37
v36
o2
n38
v37
o2
n39
v38
o2
n40
v39
o2
n41
v40
o2
n42
v41
o2
n43
v42
o2
n44
v43
o2
n45
v44
o2
n46
v45
o2
n47
v46
o2
n48
v47
o2
n49
v48
o2
n50
v49
o2
n51
v50
o2
n52
v51
o2
n53
v52
o2
n54
v53
o2
n55
v54
o2
n56
v55
o2
n57
v56
o2
n58
v57
o2
n59
v58
o2
n60
v59
o2
n61
v60
o2
n62
v61
o2
n63
v62
o2
n64
v63
o2
n65
v64
o2
n66
v65
o2
n67
v66
o2
n68
v67
o2
n69
v68
o2
n70
v69
o2
n71
v70
o2
n72
v71
o2
n73
v72
o2
n74
v73
o2
n75
v74
o2
n76
v75
o2
n77
v76
o2
n78
v77
o2
n79
v78
o2
n80
v79
o2
n81
v80
o2
n82
v81
o2
n83
v82
o2
n84
v83
o2
n85
v84
o2
n86
v85
o2
n87
v86
o2
n88
v87
o2
n89
v88
o2
n90
v89
o2
n91
v90
o2
n92
v91
o2
n93
v92
o2
n94
v93
o2
n95
v94
o2
n96
v95
o2
n97
v96
o2
n98
v97
o2
n99
v98
o2
n100
v99
n4
k99
0
0
0
0
0
0
0
0
0
0
0
0
0
0
0
0
0
0
0
0
0
0
0
0
0
0
0
0
0
0
0
0
0
0
0
0
0
0
0
0
0
0
0
0
0
0
0
0
0
0
0
0
0
0
0
0
0
0
0
0
0
0
0
0
0
0
0
0
0
0
0
0
0
0
0
0
0
0
0
0
0
0
0
0
0
0
0
0
0
0
0
0
0
0
0
0
0
0
0
G0 100
0 0
1 0
2 0
3 0
4 0
5 0
6 0
7 0
8 0
9 0
10 0
11 0
12 0
13 0
14 0
15 0
16 0
17 0
18 0
19 0
20 0
21 0
22 0
23 0
24 0
25 0
26 0
27 0
28 0
29 0
30 0
31 0
32 0
33 0
34 0
35 0
36 0
37 0
38 0
39 0
40 0
41 0
42 0
43 0
44 0
45 0
46 0
47 0
48 0
49 0
50 0
51 0
52 0
53 0
54 0
55 0
56 0
57 0
58 0
59 0
60 0
61 0
62 0
63 0
64 0
65 0
66 0
67 0
68 0
69 0
70 0
71 0
72 0
73 0
74 0
75 0
76 0
77 0
78 0
79 0
80 0
81 0
82 0
83 0
84 0
85 0
86 0
87 0
88 0
89 0
90 0
91 0
92 0
93 0
94 0
95 0
96 0
97 0
98 0
99 0
